tps_eleves/tps_eleves/linear_prog/question6/question6.lp-pulp.mps
*SENSE:Minimize
NAME          MODEL
ROWS
 N  OBJ
 E  C0000000
 E  C0000001
 E  C0000002
 E  C0000003
 E  C0000004
 E  C0000005
 E  C0000006
 E  C0000007
COLUMNS
    X0000000  C0000000   7.200000000000e+03
    X0000000  C0000001   1.000000000000e+00
    X0000001  C0000001   1.000000000000e+00
    X0000001  OBJ        2.000000000000e+01
    X0000002  C0000001   1.000000000000e+00
    X0000002  OBJ        4.400000000000e+01
    X0000003  C0000001   1.000000000000e+00
    X0000003  OBJ        1.000000000000e+02
    X0000004  C0000002   7.200000000000e+03
    X0000004  C0000003   1.000000000000e+00
    X0000005  C0000003   1.000000000000e+00
    X0000005  OBJ        2.000000000000e+01
    X0000006  C0000003   1.000000000000e+00
    X0000006  OBJ        4.400000000000e+01
    X0000007  C0000003   1.000000000000e+00
    X0000007  OBJ        1.000000000000e+02
    X0000008  C0000004   7.200000000000e+03
    X0000008  C0000005   1.000000000000e+00
    X0000009  C0000005   1.000000000000e+00
    X0000009  OBJ        2.000000000000e+01
    X0000010  C0000005   1.000000000000e+00
    X0000010  OBJ        4.400000000000e+01
    X0000011  C0000005   1.000000000000e+00
    X0000011  OBJ        1.000000000000e+02
    X0000012  C0000006   7.200000000000e+03
    X0000012  C0000007   1.000000000000e+00
    X0000013  C0000007   1.000000000000e+00
    X0000013  OBJ        2.000000000000e+01
    X0000014  C0000007   1.000000000000e+00
    X0000014  OBJ        4.400000000000e+01
    X0000015  C0000007   1.000000000000e+00
    X0000015  OBJ        1.000000000000e+02
    X0000016  C0000000   1.000000000000e+00
    X0000016  C0000002  -1.000000000000e+00
    X0000017  C0000002   1.000000000000e+00
    X0000017  C0000004  -1.000000000000e+00
    X0000018  C0000004   1.000000000000e+00
    X0000018  C0000006  -1.000000000000e+00
    X0000019  C0000006   1.000000000000e+00
RHS
    RHS       C0000000   1.440000000000e+06
    RHS       C0000001   1.000000000000e+03
    RHS       C0000002   0.000000000000e+00
    RHS       C0000003   1.600000000000e+03
    RHS       C0000004   0.000000000000e+00
    RHS       C0000005   8.000000000000e+02
    RHS       C0000006   0.000000000000e+00
    RHS       C0000007   9.000000000000e+02
BOUNDS
 UP BND       X0000000   7.500000000000e+01
 UP BND       X0000001   1.000000000000e+03
 UP BND       X0000002   5.500000000000e+02
 UP BND       X0000003   2.000000000000e+02
 UP BND       X0000004   7.500000000000e+01
 UP BND       X0000005   1.000000000000e+03
 UP BND       X0000006   5.500000000000e+02
 UP BND       X0000007   2.000000000000e+02
 UP BND       X0000008   7.500000000000e+01
 FX BND       X0000009   0.000000000000e+00
 UP BND       X0000010   5.500000000000e+02
 UP BND       X0000011   2.000000000000e+02
 UP BND       X0000012   7.500000000000e+01
 UP BND       X0000013   1.000000000000e+03
 UP BND       X0000014   5.500000000000e+02
 UP BND       X0000015   2.000000000000e+02
 UP BND       X0000016   1.440000000000e+06
 UP BND       X0000017   1.440000000000e+06
 UP BND       X0000018   1.440000000000e+06
 UP BND       X0000019   1.440000000000e+06
ENDATA
