tps_eleves/tps_eleves/linear_prog/question6/question6.lp-pulp.sol
Optimal - objective value 121800.00000000
      0 C0000000         1440000           -0.0027777778
      1 C0000001            1000                      20
      2 C0000002               0           -0.0027777778
      3 C0000003            1600                      44
      4 C0000004               0           -0.0027777778
      5 C0000005             800                     100
      6 C0000006               0           -0.0027777778
      7 C0000007             900                      20
      0 X0000000               0                       0
      1 X0000001            1000                       0
      2 X0000002               0                      24
      3 X0000003               0                      80
      4 X0000004              75                     -24
      5 X0000005            1000                     -24
      6 X0000006             525                       0
      7 X0000007               0                      56
      8 X0000008              75                     -80
      9 X0000009               0                     -80
     10 X0000010             550                     -56
     11 X0000011             175                       0
     12 X0000012              50                       0
     13 X0000013             850                       0
     14 X0000014               0                      24
     15 X0000015               0                      80
     16 X0000016         1440000                       0
     17 X0000017          900000                       0
     18 X0000018          360000                       0
     19 X0000019               0            0.0027777778
